
List of user-set options:

                                    Name   Value                used
                           compl_inf_tol = 1                     yes
                         constr_viol_tol = 1                     yes
                            dual_inf_tol = 1000                  yes
                           linear_solver = ma97                  yes
                              ma86_small = 1e-30                  no
                                  ma86_u = 0.0001                 no
                              ma97_order = best                  yes
                              ma97_small = 1e-30                 yes
                            ma97_switch1 = at_start              yes
                            ma97_switch2 = od_hd_reuse           yes
                                  ma97_u = 1e-06                 yes
                               ma97_umax = 0.5                   yes
                                max_iter = 1000                  yes
                    max_refinement_steps = 20                    yes
                    min_refinement_steps = 5                     yes
                                 mu_init = 1e-06                 yes
           mu_superlinear_decrease_power = 1.25                  yes
                   nlp_scaling_min_value = 1e-08                 yes
                        option_file_name = Preset_Case_520_pf.opt  yes
                             output_file = ./tmp/Preset_Case_520_pf.output  yes
                      print_user_options = yes                   yes
        required_infeasibility_reduction = 1                      no
                                     tol = 1e-08                 yes
                   warm_start_bound_frac = 1e-20                 yes
                   warm_start_bound_push = 1e-20                 yes
                   warm_start_init_point = yes                   yes
              warm_start_mult_bound_push = 1e-20                 yes
                warm_start_mult_init_max = 1e+40                 yes
             warm_start_slack_bound_frac = 1e-20                 yes
             warm_start_slack_bound_push = 1e-20                 yes

******************************************************************************
This program contains Ipopt, a library for large-scale nonlinear optimization.
 Ipopt is released as open source code under the Eclipse Public License (EPL).
         For more information visit http://projects.coin-or.org/Ipopt
******************************************************************************

This is Ipopt version 3.12.10, running with linear solver ma97.

Number of nonzeros in equality constraint Jacobian...:   123443
Number of nonzeros in inequality constraint Jacobian.:      213
Number of nonzeros in Lagrangian Hessian.............:    49069

Total number of variables............................:    31591
                     variables with only lower bounds:    12912
                variables with lower and upper bounds:    15130
                     variables with only upper bounds:        0
Total number of equality constraints.................:    31483
Total number of inequality constraints...............:       25
        inequality constraints with only lower bounds:        4
   inequality constraints with lower and upper bounds:        0
        inequality constraints with only upper bounds:       21

iter    objective    inf_pr   inf_du lg(mu)  ||d||  lg(rg) alpha_du alpha_pr  ls
   0 -4.8599156e+00 4.06e-03 1.02e+00  -6.0 0.00e+00    -  0.00e+00 0.00e+00   0
   1 -4.8612743e+00 8.33e+00 1.20e+02  -6.0 2.69e+05    -  1.36e-04 1.72e-03h  1
   2 -4.8612188e+00 8.33e+00 3.43e+02  -6.0 4.15e+03    -  2.36e-01 8.53e-05h  1
   3 -4.8600147e+00 8.33e+00 5.59e+02  -6.0 2.20e+04    -  3.33e-03 4.84e-04h  7
   4 -4.8591987e+00 8.32e+00 5.59e+02  -6.0 3.30e+03    -  5.18e-03 9.46e-04h  9
   5 -4.8591598e+00 8.32e+00 5.66e+02  -6.0 1.10e+03    -  1.05e-03 3.89e-05h 14
   6r-4.8591598e+00 8.32e+00 9.99e+02   0.9 0.00e+00    -  0.00e+00 2.54e-07R 21
   7r-4.8649779e+00 8.32e+00 2.17e+03   0.9 5.40e+06    -  3.33e-07 6.37e-08f  1
   8r-4.8649779e+00 8.32e+00 9.99e+02   0.9 0.00e+00    -  0.00e+00 5.27e-08R  8
   9r-4.8643101e+00 8.32e+00 5.06e+04   0.9 6.76e+04    -  9.76e-08 1.05e-08f  1
iter    objective    inf_pr   inf_du lg(mu)  ||d||  lg(rg) alpha_du alpha_pr  ls
  10 -4.8642018e+00 8.32e+00 5.16e+04  -6.0 4.17e+02    -  1.06e-03 2.04e-04h  1
  11 -4.8616985e+00 8.30e+00 4.97e+05  -6.0 3.43e+02    -  2.05e-04 1.64e-03h  1
  12 -4.8613174e+00 8.30e+00 4.97e+05  -6.0 3.46e+02    -  1.68e-03 2.52e-04h  1
  13 -4.8592430e+00 8.29e+00 4.97e+05  -6.0 3.48e+02    -  4.50e-03 1.37e-03h  1
  14 -4.8482024e+00 8.24e+00 4.94e+05  -6.0 3.29e+02    -  4.14e-03 5.88e-03h  2
  15 -4.8434249e+00 8.22e+00 4.93e+05  -6.0 3.30e+02    -  8.30e-03 2.59e-03h  4
  16 -4.8417399e+00 8.21e+00 4.92e+05  -6.0 3.30e+02    -  3.39e-03 9.16e-04h  6
  17 -4.8416241e+00 8.21e+00 4.92e+05  -6.0 3.30e+02    -  2.01e-02 6.30e-05h 10
  18 -4.8415876e+00 8.21e+00 4.92e+05  -6.0 3.30e+02    -  4.49e-03 1.98e-05h 12
  19 -4.7592594e+00 7.85e+00 4.70e+05  -6.0 3.30e+02    -  2.40e-02 4.46e-02h  1
iter    objective    inf_pr   inf_du lg(mu)  ||d||  lg(rg) alpha_du alpha_pr  ls
  20 -4.6368853e+00 7.31e+00 4.38e+05  -6.0 3.21e+02    -  1.17e-01 6.91e-02h  1
  21 -4.5677634e+00 7.04e+00 4.21e+05  -6.0 2.96e+02    -  8.81e-02 3.78e-02h  1
  22 -4.1480667e+00 5.45e+00 3.24e+05  -6.0 2.84e+02    -  2.53e-01 2.31e-01h  1
  23 -3.4167979e+00 2.39e+00 1.36e+05  -6.0 2.56e+02    -  3.81e-01 5.81e-01h  1
  24 -3.5573331e+00 1.66e+00 9.65e+04  -6.0 1.49e+02    -  1.18e-01 8.75e-01h  1
  25 -3.5920049e+00 1.51e+00 1.40e+05  -6.0 4.63e+01  -2.0 3.09e-02 9.19e-02h  1
  26 -3.8225384e+00 3.50e-01 2.90e+04  -6.0 1.17e+01    -  6.13e-06 9.17e-01f  1
  27 -3.9946107e+00 2.54e-01 1.21e+04  -6.0 1.05e+01    -  8.42e-01 5.84e-01f  1
  28 -4.3946309e+00 8.84e-01 8.46e+03  -6.0 5.72e+01    -  4.03e-01 3.00e-01f  1
  29 -4.9876628e+00 2.50e+00 5.35e+03  -6.0 1.04e+02    -  2.38e-01 3.68e-01f  1
iter    objective    inf_pr   inf_du lg(mu)  ||d||  lg(rg) alpha_du alpha_pr  ls
  30 -4.9877063e+00 2.50e+00 5.35e+03  -6.0 1.23e+02    -  5.64e-01 1.83e-04h  1
  31 -5.0885984e+00 2.29e+00 4.91e+03  -6.0 4.25e+02    -  3.10e-01 8.17e-02h  1
  32 -5.0523030e+00 2.37e-01 4.80e+03  -6.0 1.12e+02    -  6.00e-01 9.93e-01h  1
  33 -5.0992378e+00 2.43e-01 4.39e+03  -6.0 1.70e+02    -  7.00e-01 5.98e-01h  1
  34 -5.1072932e+00 2.36e-01 3.84e+03  -6.0 3.12e+02    -  6.61e-01 9.31e-02h  1
  35 -5.1506810e+00 1.19e+00 2.98e+02  -6.0 5.52e+02    -  2.29e-01 3.32e-01h  1
  36 -5.1607757e+00 9.69e-01 2.03e+03  -6.0 3.94e+02    -  5.87e-01 2.33e-01h  1
  37 -5.1926596e+00 3.32e+00 9.61e+02  -6.0 8.14e+02    -  6.24e-01 5.78e-01h  1
  38 -5.2293567e+00 9.36e+00 6.46e+03  -6.0 1.32e+03    -  9.17e-02 1.00e+00h  1
  39 -5.2317907e+00 7.40e+00 4.60e+03  -6.0 7.66e+02    -  5.98e-01 2.14e-01h  1
iter    objective    inf_pr   inf_du lg(mu)  ||d||  lg(rg) alpha_du alpha_pr  ls
  40 -5.2427848e+00 4.58e+00 1.04e+03  -6.0 1.02e+03    -  7.89e-01 7.81e-01h  1
  41 -5.2495996e+00 1.19e+01 2.97e+04  -6.0 1.32e+03    -  8.83e-03 5.67e-01h  1
  42 -5.2581693e+00 5.01e+00 1.11e+05  -6.0 4.64e+02    -  1.97e-01 1.00e+00h  1
  43 -5.2580887e+00 4.55e+00 5.34e+06  -6.0 7.25e+00  -2.5 1.07e-03 9.29e-02h  1
  44 -5.2561534e+00 9.53e-04 5.04e+02  -6.0 4.64e+00  -3.0 1.20e-01 1.00e+00h  1
  45 -5.2563512e+00 6.45e-04 3.51e+02  -6.0 3.54e-01  -3.4 1.00e+00 3.23e-01h  1
  46 -5.2567552e+00 2.63e-05 1.60e-01  -6.0 8.07e-01  -3.9 1.00e+00 1.00e+00f  1
  47 -5.2574026e+00 6.46e-04 5.85e-01  -6.0 2.63e+00  -4.4 1.00e+00 9.82e-01h  1
  48 -5.2590931e+00 3.78e-03 4.03e+00  -6.0 7.61e+00  -4.9 1.00e+00 1.00e+00f  1
  49 -5.2634739e+00 2.27e-02 2.36e+01  -6.0 2.05e+01  -5.3 1.00e+00 1.00e+00h  1
iter    objective    inf_pr   inf_du lg(mu)  ||d||  lg(rg) alpha_du alpha_pr  ls
  50 -5.2723334e+00 8.30e-02 6.50e+01  -6.0 4.54e+01  -5.8 1.00e+00 1.00e+00h  1
  51 -5.2800425e+00 1.97e-01 2.79e+01  -6.0 5.95e+01  -6.3 1.00e+00 1.00e+00h  1
  52 -5.2824273e+00 1.37e-01 2.17e+01  -6.0 8.08e+01  -6.8 1.00e+00 3.54e-01h  1
  53 -5.2869074e+00 5.20e-01 8.32e+01  -6.0 1.27e+02  -7.2 1.00e+00 4.08e-01h  1
  54 -5.2939358e+00 1.82e-01 2.72e+01  -6.0 7.28e+01  -7.7 1.00e+00 7.85e-01h  1
  55 -5.3018582e+00 1.27e+00 1.16e+01  -6.0 3.58e+02  -8.2 5.26e-01 5.62e-01h  1
  56 -5.3053841e+00 2.80e-01 2.11e+03  -6.0 1.13e+02  -8.7 2.67e-01 8.14e-01h  1
  57 -5.3115758e+00 1.33e+00 5.82e+02  -6.0 3.41e+02  -7.4 1.00e+00 5.87e-01h  1
  58 -5.3195571e+00 1.58e+00 2.31e+03  -6.0 2.32e+02  -7.8 5.49e-01 1.00e+00h  1
  59 -5.3210692e+00 1.40e+00 2.57e+04  -6.0 2.27e+02  -8.3 1.00e+00 1.31e-01h  1
iter    objective    inf_pr   inf_du lg(mu)  ||d||  lg(rg) alpha_du alpha_pr  ls
  60 -5.3322421e+00 1.65e+00 4.70e+03  -6.0 2.22e+02  -8.8 6.02e-01 1.00e+00h  1
  61 -5.3362673e+00 1.11e+00 2.14e+04  -6.0 3.69e+02  -9.3 1.69e-01 3.00e-01h  1
  62 -5.3460701e+00 3.18e+01 1.61e+05  -6.0 2.07e+03  -9.7 6.70e-02 7.86e-01h  1
  63 -5.3470674e+00 7.77e+01 1.60e+05  -6.0 2.63e+05 -10.2 7.12e-03 7.26e-03h  1
  64 -5.3494204e+00 7.07e+01 1.47e+05  -6.0 3.44e+03  -9.8 1.14e-01 1.25e-01h  1
  65 -5.3663309e+00 2.20e+01 2.05e+05  -6.0 1.12e+03  -9.4 6.91e-01 9.30e-01h  1
  66r-5.3663309e+00 2.20e+01 1.00e+03   1.0 0.00e+00  -9.8 0.00e+00 3.44e-07R  3
  67r-5.3716737e+00 2.20e+01 1.00e+03   1.0 5.53e+04    -  2.60e-07 1.01e-07f  1
  68 -5.3715360e+00 2.16e+01 1.86e+04  -6.0 2.54e+02    -  1.11e-06 2.06e-02h  1
  69 -5.3709894e+00 1.98e+01 1.70e+04  -6.0 2.45e+02    -  3.43e-02 8.16e-02h  1
iter    objective    inf_pr   inf_du lg(mu)  ||d||  lg(rg) alpha_du alpha_pr  ls
  70 -5.3705202e+00 1.83e+01 1.57e+04  -6.0 2.10e+02    -  2.39e-01 7.63e-02h  1
  71 -5.3665620e+00 5.72e+00 4.80e+03  -6.0 1.60e+02    -  1.34e-01 6.95e-01h  1
  72 -5.3664848e+00 5.37e+00 4.50e+03  -6.0 9.32e+00    -  8.32e-01 6.26e-02h  1
  73 -5.3649444e+00 8.87e-02 7.44e+01  -6.0 5.42e+00    -  5.95e-01 9.83e-01h  1
  74 -5.3650779e+00 3.70e-02 3.10e+01  -6.0 2.03e+00    -  9.84e-01 5.83e-01h  1
  75 -5.3658364e+00 3.43e-02 4.15e+01  -6.0 1.50e+02  -6.7 7.88e-01 7.24e-02h  1
  76 -5.3679229e+00 3.40e-02 4.74e+00  -6.0 3.84e+01  -6.3 9.77e-01 8.35e-01h  1
  77 -5.3728452e+00 2.59e-01 2.08e+01  -6.0 4.22e+02    -  4.36e-01 2.21e-01h  1
  78 -5.3774488e+00 3.89e+00 7.72e+00  -6.0 5.60e+02    -  8.32e-01 1.00e+00h  1
  79 -5.3783021e+00 9.12e+01 4.31e+01  -6.0 6.65e+04    -  7.30e-03 3.85e-02H  1
iter    objective    inf_pr   inf_du lg(mu)  ||d||  lg(rg) alpha_du alpha_pr  ls
  80 -5.3798090e+00 8.90e+01 4.82e+01  -6.0 8.67e+04    -  2.19e-03 2.51e-02h  1
  81 -5.3797891e+00 8.80e+01 1.54e+02  -6.0 1.09e+04    -  5.82e-02 1.54e-02h  1
  82 -5.3797391e+00 8.02e+01 3.21e+02  -6.0 2.07e+03    -  3.94e-01 9.56e-02h  1
  83 -5.3796254e+00 6.25e+01 1.46e+02  -6.0 2.20e+03    -  7.32e-01 3.06e-01h  1
  84 -5.3795656e+00 5.18e+01 4.65e+02  -6.0 2.10e+03    -  1.56e-02 2.28e-01h  1
  85 -5.3798705e+00 5.79e+01 1.40e+03  -6.0 2.02e+03    -  1.80e-02 9.23e-01h  1
  86 -5.3800972e+00 4.93e+01 1.07e+03  -6.0 2.03e+03    -  4.03e-02 1.96e-01h  1
  87 -5.3804585e+00 4.08e+01 7.83e+02  -6.0 2.02e+03    -  3.47e-01 2.97e-01h  1
  88 -5.3815632e+00 5.46e+01 2.05e+02  -6.0 1.77e+03    -  7.96e-01 1.00e+00h  1
  89 -5.3823179e+00 2.61e+01 1.65e+04  -6.0 1.44e+03    -  1.56e-02 8.22e-01h  1
iter    objective    inf_pr   inf_du lg(mu)  ||d||  lg(rg) alpha_du alpha_pr  ls
  90 -5.3820384e+00 6.40e+00 1.89e+03  -6.0 5.93e+02    -  9.60e-02 1.00e+00h  1
  91 -5.3820030e+00 9.83e-04 4.65e-01  -6.0 8.49e-01  -6.8 1.00e+00 1.00e+00h  1
  92 -5.3825256e+00 1.66e+01 4.79e+00  -6.0 1.10e+03    -  5.50e-01 8.45e-01h  1
  93 -5.3824019e+00 1.95e-01 1.03e+01  -6.0 8.21e+01    -  3.12e-01 1.00e+00h  1
  94 -5.3824053e+00 1.54e+00 6.14e-01  -6.0 2.75e+02    -  1.00e+00 1.00e+00h  1
  95 -5.3824012e+00 5.40e-03 8.35e-03  -6.0 1.77e+01    -  1.00e+00 1.00e+00h  1
  96 -5.3824012e+00 2.55e-05 9.19e-06  -6.0 1.12e+00    -  1.00e+00 1.00e+00h  1
  97 -5.3824012e+00 3.71e-10 1.40e-10  -6.0 4.21e-03    -  1.00e+00 1.00e+00h  1
  98 -5.3827304e+00 8.88e+00 1.14e+01  -7.5 1.04e+03    -  6.38e-01 5.98e-01f  1
  99 -5.3827429e+00 7.56e+00 4.16e+01  -7.5 5.55e+02    -  4.81e-01 1.75e-01h  1
iter    objective    inf_pr   inf_du lg(mu)  ||d||  lg(rg) alpha_du alpha_pr  ls
 100 -5.3827568e+00 5.77e+00 8.10e+00  -7.5 5.29e+02    -  9.62e-01 8.98e-01h  1
 101 -5.3827242e+00 2.45e-02 4.24e-02  -7.5 2.66e+01    -  1.00e+00 1.00e+00h  1
 102 -5.3827231e+00 2.30e-04 9.74e-05  -7.5 3.15e+00    -  1.00e+00 1.00e+00h  1
 103 -5.3827231e+00 2.67e-09 4.84e-10  -7.5 1.13e-02    -  1.00e+00 1.00e+00h  1
 104 -5.3827251e+00 4.20e-02 8.48e-01  -9.0 5.07e+01    -  9.27e-01 8.34e-01h  1
 105 -5.3827253e+00 2.06e-03 7.08e-04  -9.0 9.30e+00    -  1.00e+00 1.00e+00h  1
 106 -5.3827253e+00 9.27e-09 2.33e-09  -9.0 2.10e-02    -  1.00e+00 1.00e+00h  1

Number of Iterations....: 106

                                   (scaled)                 (unscaled)
Objective...............:  -4.2052541313457157e+00   -5.3827252881225158e+00
Dual infeasibility......:   2.3338749700202444e-09    2.9873599616259130e-09
Constraint violation....:   4.4930651636408702e-09    9.2732079792767763e-09
Complementarity.........:   1.0492884940826927e-09    1.3430892724258467e-09
Overall NLP error.......:   4.4930651636408702e-09    9.2732079792767763e-09


Number of objective function evaluations             = 200
Number of objective gradient evaluations             = 107
Number of equality constraint evaluations            = 200
Number of inequality constraint evaluations          = 200
Number of equality constraint Jacobian evaluations   = 110
Number of inequality constraint Jacobian evaluations = 110
Number of Lagrangian Hessian evaluations             = 106
Total CPU secs in IPOPT (w/o function evaluations)   =    222.516
Total CPU secs in NLP function evaluations           =      4.889

EXIT: Optimal Solution Found.
